
Gurobi 13.0.1 (linux64) logging started Sun Mar 22 13:28:26 2026

Set parameter LogFile to value "logs/75B_3F_robust_gamma_1_theta_0d05199999999999999_2026-03-22_13h27m53s.log"
Set parameter MIPGap to value 0.005
Set parameter OptimalityTol to value 0.005
Gurobi Optimizer version 13.0.1 build v13.0.1rc0 (linux64 - "openSUSE Tumbleweed")

CPU model: Intel(R) Core(TM) i7-10610U CPU @ 1.80GHz, instruction set [SSE2|AVX|AVX2]
Thread count: 4 physical cores, 8 logical processors, using up to 8 threads

Non-default parameters:
TimeLimit  3600
SoftMemLimit  12
MIPGap  0.005
OptimalityTol  0.005

Optimize a model with 45596 rows, 867096 columns and 2644377 nonzeros (Max)
Model fingerprint: 0xd1fdbaf0
Model has 832586 linear objective coefficients
Variable types: 12096 continuous, 855000 integer (855000 binary)
Coefficient statistics:
  Matrix range     [3e-05, 1e+05]
  Objective range  [1e+00, 3e+03]
  Bounds range     [1e+00, 1e+05]
  RHS range        [1e-02, 1e+05]

Presolve removed 23361 rows and 626499 columns
Presolve time: 2.68s
Presolved: 22235 rows, 240597 columns, 754072 nonzeros
Variable types: 5898 continuous, 234699 integer (234699 binary)
Found heuristic solution: objective -4.12338e+08
Deterministic concurrent LP optimizer: primal simplex, dual simplex, and barrier
Showing barrier log only...

Root barrier log...

Ordering time: 0.76s

Barrier statistics:
 AA' NZ     : 3.860e+05
 Factor NZ  : 3.371e+06 (roughly 130 MB of memory)
 Factor Ops : 1.018e+09 (less than 1 second per iteration)
 Threads    : 2

                  Objective                Residual
Iter       Primal          Dual         Primal    Dual     Compl     Time
   0  -8.72393993e+11  1.19651777e+09  2.53e+07 1.02e+03  1.06e+07     6s
   1  -8.94957465e+10  2.94508437e+09  2.60e+06 4.37e-11  1.11e+06     6s
   2  -4.09931651e+09  1.84036825e+09  1.19e+05 5.82e-11  5.39e+04     6s
   3  -4.20101379e+08  1.56164198e+09  1.73e+04 6.62e-11  9.89e+03     6s
   4  -7.84497633e+07  7.42545198e+08  8.01e+03 7.49e-11  3.86e+03     7s
   5   1.84661461e+08  3.81134509e+08  1.07e+03 7.41e-11  6.29e+02     7s
   6   2.22399795e+08  2.31503644e+08  7.66e+00 7.32e-11  1.99e+01     7s
   7   2.22694106e+08  2.24329828e+08  1.16e-10 9.05e-11  3.32e+00     7s
   8   2.22742413e+08  2.23662544e+08  5.38e-10 8.57e-11  1.87e+00     7s
   9   2.22779126e+08  2.23229380e+08  4.66e-10 6.68e-11  9.14e-01     8s
  10   2.22816377e+08  2.23030477e+08  1.98e-09 5.80e-11  4.35e-01     8s
  11   2.22838000e+08  2.22900567e+08  1.22e-09 6.55e-11  1.27e-01     8s
  12   2.22844558e+08  2.22868970e+08  8.73e-10 6.53e-11  4.96e-02     8s
  13   2.22845760e+08  2.22860500e+08  5.82e-10 8.39e-11  2.99e-02     8s
  14   2.22845972e+08  2.22857735e+08  8.73e-10 9.63e-11  2.39e-02     9s
  15   2.22846300e+08  2.22852214e+08  2.91e-10 7.07e-11  1.20e-02     9s
  16   2.22846734e+08  2.22850004e+08  1.80e-09 7.65e-11  6.64e-03     9s
  17   2.22846842e+08  2.22848367e+08  1.22e-09 8.16e-11  3.10e-03     9s
  18   2.22846913e+08  2.22848100e+08  1.22e-09 9.09e-11  2.41e-03     9s
  19   2.22846937e+08  2.22847516e+08  1.34e-09 8.75e-11  1.18e-03    10s
  20   2.22846949e+08  2.22847236e+08  2.62e-09 7.41e-11  5.84e-04    10s
  21   2.22846976e+08  2.22847111e+08  3.38e-09 8.05e-11  2.75e-04    10s
  22   2.22846983e+08  2.22847040e+08  3.14e-09 6.87e-11  1.16e-04    10s
  23   2.22846985e+08  2.22847004e+08  1.40e-09 6.64e-11  3.85e-05    10s
  24   2.22846986e+08  2.22846988e+08  1.92e-09 5.50e-11  3.29e-06    11s
  25   2.22846986e+08  2.22846986e+08  3.26e-09 5.50e-11  8.35e-08    11s
  26   2.22846986e+08  2.22846986e+08  1.89e-09 5.67e-11  8.62e-11    11s

Barrier solved model in 26 iterations and 10.97 seconds (6.95 work units)
Optimal objective 2.22846986e+08


Root crossover log...

    6347 DPushes remaining with DInf 0.0000000e+00                11s
       0 DPushes remaining with DInf 0.0000000e+00                11s

    4511 PPushes remaining with PInf 1.1373103e-06                11s
       0 PPushes remaining with PInf 0.0000000e+00                12s

  Push phase complete: Pinf 0.0000000e+00, Dinf 1.0213872e+05     12s


Root simplex log...

Iteration    Objective       Primal Inf.    Dual Inf.      Time
   10141    2.2284699e+08   0.000000e+00   1.021385e+05     12s
   11430    2.2284699e+08   0.000000e+00   0.000000e+00     13s
Crossover time: 1.52 seconds (0.79 work units)
Concurrent spin time: 0.21s

Solved with barrier

Root relaxation: objective 2.228470e+08, 11430 iterations, 8.60 seconds (4.32 work units)

    Nodes    |    Current Node    |     Objective Bounds      |     Work
 Expl Unexpl |  Obj  Depth IntInf | Incumbent    BestBd   Gap | It/Node Time

     0     0 2.2285e+08    0 4244 -4.123e+08 2.2285e+08   154%     -   14s
H    0     0                    1.697198e+08 2.2285e+08  31.3%     -   15s
H    0     0                    1.759379e+08 2.2285e+08  26.7%     -   15s
H    0     0                    1.764408e+08 2.2285e+08  26.3%     -   16s
H    0     0                    2.227473e+08 2.2285e+08  0.04%     -   18s

Explored 1 nodes (12684 simplex iterations) in 18.91 seconds (11.95 work units)
Thread count was 8 (of 8 available processors)

Solution count 5: 2.22747e+08 1.76441e+08 1.75938e+08 ... -4.12338e+08

Optimal solution found (tolerance 5.00e-03)
Best objective 2.227473485879e+08, best bound 2.228469864118e+08, gap 0.0447%
